NAME : A-n55-k9-20
TYPE : VRP-D
DIMENSION : 20
CAPACITY : 100
NODE_COORD_SECTION 
 1 36 64
 2 94 47
 3 10 23
 4 16 46
 5 25 79
 6 41 30
 7 81 45
 8 14 79
 9 42 56
 10 90 17
 11 41 39
 12 21 14
 13 41 46
 14 65 96
 15 13 49
 16 21 14
 17 57 2
 18 14 42
 19 66 62
 20 58 96
DEMAND_SECTION 
1 0 
2 3 
3 12 
4 25 
5 4 
6 11 
7 20 
8 21 
9 10 
10 20 
11 13 
12 14 
13 16 
14 17 
15 11 
16 36 
17 6 
18 7 
19 21 
20 11 
DEPOT_SECTION 
 1  
 -1  
EOF 
